#p m062X def2TZVP opt freq
 
33032 glutamate
 
0 1
O          1.28724       -1.65895       -2.67468
O         -3.12171       -1.09574        0.44839
O          3.33087       -1.59003       -1.69566
O         -2.95264        1.00711       -0.39553
N          2.00247        0.48546       -0.11904
C         -0.12380       -0.66490       -0.71460
C          1.38560       -0.79700       -0.45120
C         -0.96090       -0.08320        0.42790
C          2.12556       -1.38218       -1.64101
C         -2.43240        0.02350        0.11516
H         -0.52820       -1.64860       -0.98940
H         -0.26680       -0.03370       -1.60220
H          1.54470       -1.47236        0.39792
H         -0.85529       -0.71061        1.31977
H         -0.60959        0.92654        0.66722
H          2.97057        0.33780        0.16415
H          1.52969        0.89375        0.68639
H          1.76700       -2.03452       -3.44341
H         -4.07574       -1.01564        0.23451
