#p m062X def2TZVP opt freq
 
33032 glutamate
 
0 1
O          1.39830        1.56696       -0.77985
O         -0.11669       -1.98911        1.58962
O          3.01076        0.71449        0.56659
O         -1.49672       -0.58844        2.72822
N          1.67514       -1.70021        0.66053
C         -0.12380       -0.66490       -0.71460
C          1.38560       -0.79700       -0.45120
C         -0.96090       -0.08320        0.42790
C          2.03410        0.54287       -0.15150
C         -0.89861       -0.88695        1.70251
H         -0.52820       -1.64860       -0.98940
H         -0.26680       -0.03370       -1.60220
H          1.87246       -1.20379       -1.34558
H         -0.61776        0.93152        0.65772
H         -2.01384       -0.03682        0.12884
H          2.68085       -1.85379        0.72527
H          1.25938       -2.61255        0.47691
H          1.81679        2.43207       -0.58330
H         -0.08950       -2.50584        2.42303
