#p m062X def2TZVP opt freq
 
33032 glutamate
 
0 1
O          3.22285       -2.08819       -1.25980
O         -0.64807        2.20255       -0.18225
O          1.79853       -1.25405       -2.81388
O         -0.17033        1.60971        1.95856
N          2.00247        0.48546       -0.11904
C         -0.12380       -0.66490       -0.71460
C          1.38560       -0.79700       -0.45120
C         -0.96090       -0.08320        0.42790
C          2.12556       -1.38218       -1.64101
C         -0.55491        1.31098        0.83526
H         -0.52820       -1.64860       -0.98940
H         -0.26680       -0.03370       -1.60220
H          1.54470       -1.47236        0.39792
H         -2.01550       -0.04951        0.13309
H         -0.86632       -0.71748        1.31616
H          2.97057        0.33780        0.16415
H          1.52969        0.89375        0.68639
H          3.69836       -2.46768       -2.02925
H         -0.37568        3.10351        0.09411
