#p m062X def2TZVP opt freq
 
33032 glutamate
 
0 1
O          3.07330       -0.53240       -2.11798
O         -1.03954       -0.12107        2.81268
O          1.91929       -2.48372       -2.13400
O         -0.72745       -2.09870        1.73828
N          2.00247        0.48546       -0.11904
C         -0.12380       -0.66490       -0.71460
C          1.38560       -0.79700       -0.45120
C         -0.96090       -0.08320        0.42790
C          2.12556       -1.38218       -1.64101
C         -0.89861       -0.88695        1.70251
H         -0.52820       -1.64860       -0.98940
H         -0.26680       -0.03370       -1.60220
H          1.54470       -1.47236        0.39792
H         -0.61776        0.93152        0.65772
H         -2.01384       -0.03682        0.12884
H          2.97057        0.33780        0.16415
H          1.52969        0.89375        0.68639
H          3.55213       -0.91278       -2.88492
H         -0.99121       -0.65473        3.63438
