#p m062X def2TZVP opt freq
 
33032 glutamate
 
0 1
O          1.73583       -1.00473        1.90054
O         -0.71437       -2.21163        1.47851
O          1.85831       -2.90978        0.67767
O         -1.01335       -0.40328        2.82136
N          2.10501       -1.31854       -1.61138
C         -0.12380       -0.66490       -0.71460
C          1.38560       -0.79700       -0.45120
C         -0.96090       -0.08320        0.42790
C          1.68349       -1.69928        0.73319
C         -0.89861       -0.88695        1.70251
H         -0.52820       -1.64860       -0.98940
H         -0.26680       -0.03370       -1.60220
H          1.79844        0.19249       -0.22117
H         -0.61776        0.93152        0.65772
H         -2.01384       -0.03682        0.12884
H          3.10904       -1.27791       -1.43965
H          1.93020       -0.72143       -2.41874
H          1.92583       -1.58925        2.66501
H         -0.68168       -2.72344        2.31475
