#p m062X def2TZVP opt freq
 
33032 glutamate
 
0 1
O          1.12447       -1.23233        1.88092
O         -2.73542       -0.40748       -1.13438
O          2.34216       -2.73052        0.69253
O         -3.26673        0.46223        0.89640
N          2.10501       -1.31854       -1.61138
C         -0.12380       -0.66490       -0.71460
C          1.38560       -0.79700       -0.45120
C         -0.96090       -0.08320        0.42790
C          1.68349       -1.69928        0.73319
C         -2.43240        0.02350        0.11516
H         -0.52820       -1.64860       -0.98940
H         -0.26680       -0.03370       -1.60220
H          1.79844        0.19249       -0.22117
H         -0.85529       -0.71061        1.31977
H         -0.60959        0.92654        0.66722
H          3.10904       -1.27791       -1.43965
H          1.93020       -0.72143       -2.41874
H          1.31563       -1.81751        2.64459
H         -3.69392       -0.32723       -1.32712
