#p m062X def2TZVP opt freq
 
33032 glutamate
 
0 1
O          1.39830        1.56696       -0.77985
O          0.37985        1.31887        1.81764
O          3.01076        0.71449        0.56659
O         -1.02369        2.32987        0.34432
N          1.67514       -1.70021        0.66053
C         -0.12380       -0.66490       -0.71460
C          1.38560       -0.79700       -0.45120
C         -0.96090       -0.08320        0.42790
C          2.03410        0.54287       -0.15150
C         -0.55491        1.31098        0.83526
H         -0.52820       -1.64860       -0.98940
H         -0.26680       -0.03370       -1.60220
H          1.87246       -1.20379       -1.34558
H         -2.01550       -0.04951        0.13309
H         -0.86632       -0.71748        1.31616
H          2.68085       -1.85379        0.72527
H          1.25938       -2.61255        0.47691
H          1.81679        2.43207       -0.58330
H          0.63060        2.23101        2.07733
