#p m062X def2TZVP opt freq
 
6305 tryptophan
 
0 1
O          3.62470        0.52837        1.39617
O          2.07650        2.03359        2.09124
N         -1.64740        2.00440        0.54820
N          3.89019        1.66780       -0.89257
C          0.14750        1.13230       -0.42360
C          1.50650        0.98450       -0.98300
C         -0.86670        0.13490       -0.38590
C          2.57525        1.86586       -0.28701
C         -1.98230        0.70780        0.22860
C         -0.36250        2.27020        0.15790
C         -0.94310       -1.20450       -0.81690
C         -3.17510        0.00550        0.43460
C          2.71777        1.51742        1.18469
C         -2.12980       -1.91930       -0.61760
C         -3.22740       -1.32160       -0.00120
H          1.80814       -0.07039       -0.92506
H          1.48424        1.22995       -2.05369
H          2.31129        2.92675       -0.37327
H          0.07230        3.24490        0.33040
H         -2.26200        2.66390        1.00510
H         -0.10010       -1.68640       -1.30350
H         -4.03010        0.46990        0.91430
H         -2.19480       -2.95220       -0.94900
H          4.55649        2.32576       -0.48949
H          3.84412        1.88484       -1.88751
H         -4.13930       -1.89530        0.14340
H          3.70363        0.30226        2.34740
