#p m062X def2TZVP opt freq
 
6305 tryptophan
 
0 1
O          1.46770       -0.81737        1.72094
O          2.56963       -1.94675        0.09122
N         -1.64740        2.00440        0.54820
N          3.87637        0.36767       -0.58263
C          0.14750        1.13230       -0.42360
C          1.50650        0.98450       -0.98300
C         -0.86670        0.13490       -0.38590
C          2.56018        0.48847        0.04030
C         -1.98230        0.70780        0.22860
C         -0.36250        2.27020        0.15790
C         -0.94310       -1.20450       -0.81690
C         -3.17510        0.00550        0.43460
C          2.20957       -0.88559        0.58497
C         -2.12980       -1.91930       -0.61760
C         -3.22740       -1.32160       -0.00120
H          1.47245        0.29388       -1.83683
H          1.83449        1.94963       -1.39295
H          2.63809        1.19005        0.87953
H          0.07230        3.24490        0.33040
H         -2.26200        2.66390        1.00510
H         -0.10010       -1.68640       -1.30350
H         -4.03010        0.46990        0.91430
H         -2.19480       -2.95220       -0.94900
H          4.57191        0.13719        0.12620
H          4.15460        1.26844       -0.97037
H         -4.13930       -1.89530        0.14340
H          1.25399       -1.70810        2.07183
