#p m062X def2TZVP opt freq
 
6305 tryptophan
 
0 1
O          3.89128        0.06668       -1.90227
O          4.99540        0.53690        0.02271
N         -1.64740        2.00440        0.54820
N          2.67596        1.41735        1.16224
C          0.14750        1.13230       -0.42360
C          1.50650        0.98450       -0.98300
C         -0.86670        0.13490       -0.38590
C          2.56018        0.48847        0.04030
C         -1.98230        0.70780        0.22860
C         -0.36250        2.27020        0.15790
C         -0.94310       -1.20450       -0.81690
C         -3.17510        0.00550        0.43460
C          3.94181        0.38529       -0.58265
C         -2.12980       -1.91930       -0.61760
C         -3.22740       -1.32160       -0.00120
H          1.47245        0.29388       -1.83683
H          1.83449        1.94963       -1.39295
H          2.27750       -0.49530        0.43386
H          0.07230        3.24490        0.33040
H         -2.26200        2.66390        1.00510
H         -0.10010       -1.68640       -1.30350
H         -4.03010        0.46990        0.91430
H         -2.19480       -2.95220       -0.94900
H          3.29765        1.02613        1.86920
H          1.76742        1.52464        1.61188
H         -4.13930       -1.89530        0.14340
H          4.78716       -0.00792       -2.29472
