#p m062X def2TZVP opt freq
 
6305 tryptophan
 
0 1
O          3.88253        0.73074       -2.04546
O          3.38045        1.37179       -4.16270
N         -1.64740        2.00440        0.54820
N          0.74228        0.50758       -3.29505
C          0.14750        1.13230       -0.42360
C          1.50650        0.98450       -0.98300
C         -0.86670        0.13490       -0.38590
C          1.61498        1.35414       -2.48467
C         -1.98230        0.70780        0.22860
C         -0.36250        2.27020        0.15790
C         -0.94310       -1.20450       -0.81690
C         -3.17510        0.00550        0.43460
C          3.02574        1.15363       -3.01114
C         -2.12980       -1.91930       -0.61760
C         -3.22740       -1.32160       -0.00120
H          2.20512        1.60284       -0.40273
H          1.84182       -0.05277       -0.84608
H          1.32592        2.40009       -2.64290
H          0.07230        3.24490        0.33040
H         -2.26200        2.66390        1.00510
H         -0.10010       -1.68640       -1.30350
H         -4.03010        0.46990        0.91430
H         -2.19480       -2.95220       -0.94900
H          0.75252        0.83007       -4.26212
H         -0.22055        0.60382       -2.97438
H         -4.13930       -1.89530        0.14340
H          4.79311        0.61330       -2.39077
