#p m062X def2TZVP opt freq
 
6305 tryptophan
 
0 1
O          3.68935        0.34411       -2.46613
O          4.33913       -1.32878       -1.07869
N         -1.64740        2.00440        0.54820
N          2.14861       -0.90303        0.49416
C          0.14750        1.13230       -0.42360
C          1.50650        0.98450       -0.98300
C         -0.86670        0.13490       -0.38590
C          2.07251       -0.45609       -0.89488
C         -1.98230        0.70780        0.22860
C         -0.36250        2.27020        0.15790
C         -0.94310       -1.20450       -0.81690
C         -3.17510        0.00550        0.43460
C          3.48156       -0.54038       -1.45619
C         -2.12980       -1.91930       -0.61760
C         -3.22740       -1.32160       -0.00120
H          1.50309        1.31263       -2.03155
H          2.18840        1.66811       -0.45878
H          1.43146       -1.15331       -1.44764
H          0.07230        3.24490        0.33040
H         -2.26200        2.66390        1.00510
H         -0.10010       -1.68640       -1.30350
H         -4.03010        0.46990        0.91430
H         -2.19480       -2.95220       -0.94900
H          2.42786       -1.88304        0.52476
H          1.22272       -0.85879        0.91831
H         -4.13930       -1.89530        0.14340
H          4.59785        0.27662       -2.82981
