#p m062X def2TZVP opt freq
 
6305 tryptophan
 
0 1
O          4.68733        2.83061       -0.86293
O          4.34194        0.67040       -1.46288
N         -1.64740        2.00440        0.54820
N          2.23648        3.28284       -0.39832
C          0.14750        1.13230       -0.42360
C          1.50650        0.98450       -0.98300
C         -0.86670        0.13490       -0.38590
C          2.57525        1.86586       -0.28701
C         -1.98230        0.70780        0.22860
C         -0.36250        2.27020        0.15790
C         -0.94310       -1.20450       -0.81690
C         -3.17510        0.00550        0.43460
C          3.94402        1.69513       -0.92336
C         -2.12980       -1.91930       -0.61760
C         -3.22740       -1.32160       -0.00120
H          1.80814       -0.07039       -0.92506
H          1.48424        1.22995       -2.05369
H          2.64775        1.61040        0.77699
H          0.07230        3.24490        0.33040
H         -2.26200        2.66390        1.00510
H         -0.10010       -1.68640       -1.30350
H         -4.03010        0.46990        0.91430
H         -2.19480       -2.95220       -0.94900
H          2.89488        3.83727        0.14798
H          1.31814        3.44765        0.01232
H         -4.13930       -1.89530        0.14340
H          5.56545        2.71536       -1.28460
