#p m062X def2TZVP opt freq
 
6057 tyrosine
 
0 1
O         -1.85433       -1.55728        0.54310
O          4.21830       -0.63510       -0.39470
O         -2.34415       -1.37131       -1.66389
N         -3.39222        1.07756        0.04066
C         -1.04930        1.02100        0.76330
C         -2.04789        0.65533       -0.34582
C          0.36180        0.57740        0.45290
C          0.78030       -0.67980        0.85530
C          1.20770        1.43730       -0.22760
C         -2.11463       -0.84361       -0.58309
C          2.08270       -1.08910        0.56900
C          2.51010        1.02800       -0.51410
C          2.94760       -0.23530       -0.11580
H         -1.36311        0.59448        1.72609
H         -1.03220        2.10890        0.91902
H         -1.80584        1.15161       -1.29277
H          0.11580       -1.35120        1.39140
H          0.87520        2.42170       -0.54400
H         -3.40904        2.08914        0.16659
H         -3.63198        0.68099        0.94917
H          2.41140       -2.07540        0.88530
H          3.17900        1.69730       -1.04820
H         -1.88669       -2.52385        0.37909
H          4.34940       -1.53390       -0.04670
