#p m062X def2TZVP opt freq
 
6057 tyrosine
 
0 1
O         -4.24150        0.86059       -0.65726
O          4.21830       -0.63510       -0.39470
O         -3.97617        0.70116        1.58985
N         -1.98971        0.13018       -1.31918
C         -1.04930        1.02100        0.76330
C         -2.11402        0.10751        0.13646
C          0.36180        0.57740        0.45290
C          0.78030       -0.67980        0.85530
C          1.20770        1.43730       -0.22760
C         -3.52476        0.56918        0.45932
C          2.08270       -1.08910        0.56900
C          2.51010        1.02800       -0.51410
C          2.94760       -0.23530       -0.11580
H         -1.18170        1.08322        1.85232
H         -1.16529        2.05078        0.39703
H         -2.00093       -0.93343        0.46091
H          0.11580       -1.35120        1.39140
H          0.87520        2.42170       -0.54400
H         -1.06995       -0.21764       -1.58845
H         -2.03177        1.09212       -1.65540
H          2.41140       -2.07540        0.88530
H          3.17900        1.69730       -1.04820
H         -5.14669        1.17002       -0.44028
H          4.34940       -1.53390       -0.04670
