#p m062X def2TZVP opt freq
 
6057 tyrosine
 
0 1
O         -0.81304        3.81082       -1.62439
O          4.21830       -0.63510       -0.39470
O         -0.11717        3.74416        0.53353
N         -1.58905        1.37961       -1.60202
C         -1.04930        1.02100        0.76330
C         -1.61051        2.00019       -0.27942
C          0.36180        0.57740        0.45290
C          0.78030       -0.67980        0.85530
C          1.20770        1.43730       -0.22760
C         -0.77785        3.26672       -0.38016
C          2.08270       -1.08910        0.56900
C          2.51010        1.02800       -0.51410
C          2.94760       -0.23530       -0.11580
H         -1.69742        0.13873        0.85760
H         -1.04337        1.48520        1.75956
H         -2.64857        2.27724       -0.06195
H          0.11580       -1.35120        1.39140
H          0.87520        2.42170       -0.54400
H         -2.17543        0.54560       -1.59704
H         -0.64650        1.05464       -1.81682
H          2.41140       -2.07540        0.88530
H          3.17900        1.69730       -1.04820
H         -0.26307        4.62080       -1.68494
H          4.34940       -1.53390       -0.04670
