#p m062X def2TZVP opt freq
 
6057 tyrosine
 
0 1
O         -3.37172        3.13635        0.00296
O          4.21830       -0.63510       -0.39470
O         -4.23373        1.03845       -0.03010
N         -1.23679        2.45436       -1.21786
C         -1.04930        1.02100        0.76330
C         -1.86360        1.34810       -0.49804
C          0.36180        0.57740        0.45290
C          0.78030       -0.67980        0.85530
C          1.20770        1.43730       -0.22760
C         -3.27798        1.79170       -0.16593
C          2.08270       -1.08910        0.56900
C          2.51010        1.02800       -0.51410
C          2.94760       -0.23530       -0.11580
H         -1.55188        0.24877        1.36200
H         -0.98757        1.90188        1.41775
H         -1.91385        0.49463       -1.18409
H          0.11580       -1.35120        1.39140
H          0.87520        2.42170       -0.54400
H         -0.29598        2.18547       -1.50428
H         -1.11916        3.25173       -0.59294
H          2.41140       -2.07540        0.88530
H          3.17900        1.69730       -1.04820
H         -4.28494        3.41359        0.22962
H          4.34940       -1.53390       -0.04670
