#p m062X def2TZVP opt freq
 
5960 aspartic
 
0 1
O          0.28396       -1.39196       -0.63508
O         -2.36801        2.07721        1.14986
O          2.46080       -0.88213       -0.25183
O         -0.58652        3.42810        0.72739
N          1.74450        1.67880        0.40550
C          0.72720        0.63750        0.54990
C         -0.59570        1.11590       -0.06130
C          1.27480       -0.59800       -0.14700
C         -1.14187        2.34428        0.63022
H          0.60510        0.41580        1.61660
H         -1.34309        0.31596        0.02301
H         -0.47141        1.35832       -1.12288
H          2.59320        1.39920        0.89650
H          1.42470        2.53410        0.85860
H          0.64127       -2.19275       -1.07473
H         -2.74856        2.85664        1.60802
