#p m062X def2TZVP opt freq
 
5960 aspartic
 
0 1
O          0.45775       -1.02637       -1.14665
O         -2.10964       -0.25140       -1.23201
O          2.31344       -1.17384        0.14954
O         -2.12748       -0.43948        1.03545
N          1.74450        1.67880        0.40550
C          0.72720        0.63750        0.54990
C         -0.59570        1.11590       -0.06130
C          1.27480       -0.59800       -0.14700
C         -1.68196        0.06742        0.01707
H          0.60510        0.41580        1.61660
H         -0.43644        1.36411       -1.11896
H         -0.96119        2.01367        0.45016
H          2.59320        1.39920        0.89650
H          1.42470        2.53410        0.85860
H          0.80963       -1.82937       -1.58666
H         -2.81508       -0.93278       -1.21407
