#p m062X def2TZVP opt freq
 
6306 isoleucine
 
0 1
O         -0.30428       -2.78472        0.73690
O          1.23430       -1.60269        1.91039
N          0.99611       -1.60657       -1.43756
C         -0.84990       -0.19660       -0.51130
C          0.55990       -0.80120       -0.29320
C         -1.32840        0.71620        0.64250
C         -1.89090       -1.29490       -0.77940
C         -2.64952        1.43263        0.39633
C          0.55961       -1.74879        0.89855
H         -0.80620        0.42400       -1.41710
H          1.30065       -0.01504       -0.11051
H         -0.56651        1.48043        0.83634
H         -1.43351        0.13809        1.56772
H         -1.52420       -1.99570       -1.53740
H         -2.11860       -1.86500        0.12730
H         -2.82570       -0.87380       -1.16250
H         -2.62735        1.98150       -0.55038
H         -2.84098        2.15140        1.19988
H         -3.49036        0.73346        0.37637
H          0.39070       -2.41707       -1.55744
H          1.93231       -1.97140       -1.26511
H         -0.30558       -3.38400        1.51343
