#p m062X def2TZVP opt freq
 
6267 aspargine
 
0 1
O          1.02003       -0.98581       -1.22526
O          1.79481       -1.38647        0.86706
O         -1.53074       -0.85681        0.55540
N          1.78050        1.68340        0.08540
N         -2.75043        0.29834       -1.01589
C          0.69900        0.74360        0.39060
C         -0.51740        1.06660       -0.47970
C          1.22750       -0.64570        0.07400
C         -1.63547        0.07168       -0.24260
H          0.48220        0.81270        1.46110
H         -0.89917        2.07094       -0.25914
H         -0.26072        1.03480       -1.54619
H          2.03560        1.61930       -0.89940
H          2.61350        1.44030        0.62000
H         -2.80143        1.04681       -1.69911
H         -3.56306       -0.30511       -0.94508
H          1.37170       -1.87843       -1.42994
