#p m062X def2TZVP opt freq
 
6267 aspargine
 
0 1
O          2.56420       -0.74547        0.29776
O          0.55231       -1.58904       -0.31812
O          0.97304        0.75666       -2.34526
N          1.78050        1.68340        0.08540
N         -1.21145        1.32725       -2.78502
C          0.69900        0.74360        0.39060
C         -0.51740        1.06660       -0.47970
C          1.22750       -0.64570        0.07400
C         -0.16025        1.02233       -1.95166
H          0.48220        0.81270        1.46110
H         -1.32664        0.34804       -0.30110
H         -0.90710        2.06848       -0.25912
H          2.03560        1.61930       -0.89940
H          2.61350        1.44030        0.62000
H         -2.12984        1.58416       -2.43836
H         -1.09124        1.33141       -3.79252
H          2.90104       -1.64603        0.10317
