#p m062X def2TZVP opt freq
 
6267 aspargine
 
0 1
O          0.28779       -1.60643        0.27581
O          2.35344       -0.90009       -0.33476
O         -0.70809        0.25333       -2.73802
N          1.78050        1.68340        0.08540
N          0.83839        1.90007       -2.30489
C          0.69900        0.74360        0.39060
C         -0.51740        1.06660       -0.47970
C          1.22750       -0.64570        0.07400
C         -0.16025        1.02233       -1.95166
H          0.48220        0.81270        1.46110
H         -1.32664        0.34804       -0.30110
H         -0.90710        2.06848       -0.25912
H          2.03560        1.61930       -0.89940
H          2.61350        1.44030        0.62000
H          1.30671        2.49801       -1.63202
H          1.16325        1.95839       -3.26436
H          0.62775       -2.50106        0.06039
