#p m062X def2TZVP opt freq
 
6274 histidine
 
0 1
O         -2.75325        2.66616       -0.70490
O         -3.82846        0.90108        0.22983
N          1.90842        0.59877        1.07969
N         -1.21002        0.66083       -1.88735
N          2.71701       -0.54291       -0.64508
C         -0.35790        1.30040        0.32170
C         -1.50620        0.63970       -0.45670
C          0.96710        0.60200        0.11950
C         -2.82026        1.37964       -0.27408
C          1.45348       -0.08958       -0.93016
C          2.96116       -0.11087        0.57223
H         -0.59420        1.31960        1.39460
H         -0.24330        2.34500        0.00390
H         -1.64734       -0.40417       -0.15375
H          1.86088        1.02858        1.99449
H          0.98528       -0.29860       -1.88082
H         -0.34487        0.15063       -2.06285
H         -1.03312        1.61795       -2.19153
H          3.86797       -0.27553        1.13656
H         -3.60116        3.14098       -0.57165
