#p m062X def2TZVP opt freq
 
6274 histidine
 
0 1
O         -2.90287        1.99605        0.93358
O         -3.72842        1.40573       -1.09503
N          1.07214       -0.48117       -0.67029
N         -1.21002        0.66083       -1.88735
N          3.09420       -0.05562        0.14350
C         -0.35790        1.30040        0.32170
C         -1.50620        0.63970       -0.45670
C          0.96710        0.60200        0.11950
C         -2.82026        1.37964       -0.27408
C          2.19222        0.86417        0.61647
C          2.38754       -0.85169       -0.62787
H         -0.59420        1.31960        1.39460
H         -0.24330        2.34500        0.00390
H         -1.64734       -0.40417       -0.15375
H          0.33739       -0.93848       -1.19458
H          2.49795        1.65420        1.28658
H         -0.34487        0.15063       -2.06285
H         -1.03312        1.61795       -2.19153
H          2.76230       -1.70313       -1.17787
H         -3.75910        2.46045        1.04922
