#p m062X def2TZVP opt freq
 
6274 histidine
 
0 1
O         -1.06375        1.83469       -2.48142
O         -1.19575       -0.42522       -2.62513
N          1.90842        0.59877        1.07969
N         -1.66640       -0.74554       -0.02038
N          2.71701       -0.54291       -0.64508
C         -0.35790        1.30040        0.32170
C         -1.50620        0.63970       -0.45670
C          0.96710        0.60200        0.11950
C         -1.23301        0.59592       -1.95037
C          1.45348       -0.08958       -0.93016
C          2.96116       -0.11087        0.57223
H         -0.59420        1.31960        1.39460
H         -0.24330        2.34500        0.00390
H         -2.45576        1.16108       -0.28974
H          1.86088        1.02858        1.99449
H          0.98528       -0.29860       -1.88082
H         -1.87828       -0.76541        0.97676
H         -0.78488       -1.24725       -0.12577
H          3.86797       -0.27553        1.13656
H         -0.90091        1.79898       -3.44805
