#p m062X def2TZVP opt freq
 
6274 histidine
 
0 1
O         -1.69065        1.70220       -2.59219
O         -0.69158       -0.33347       -2.53561
N          1.35921       -0.39901        0.92714
N         -1.66640       -0.74554       -0.02038
N          2.96459       -0.09303       -0.57660
C         -0.35790        1.30040        0.32170
C         -1.50620        0.63970       -0.45670
C          0.96710        0.60200        0.11950
C         -1.23301        0.59592       -1.95037
C          1.93877        0.79199       -0.79505
C          2.58449       -0.79522        0.46770
H         -0.59420        1.31960        1.39460
H         -0.24330        2.34500        0.00390
H         -2.45576        1.16108       -0.28974
H          0.86017       -0.78935        1.71610
H          1.97906        1.50662       -1.60395
H         -1.87828       -0.76541        0.97676
H         -0.78488       -1.24725       -0.12577
H          3.14172       -1.59488        0.93453
H         -1.52237        1.66062       -3.55766
