#p m062X def2TZVP opt freq
 
6274 histidine
 
0 1
O         -1.00770       -1.68470       -0.72491
O         -2.53351       -1.13306        0.86030
N          1.07214       -0.48117       -0.67029
N         -2.75043        1.36616       -0.21362
N          3.09420       -0.05562        0.14350
C         -0.35790        1.30040        0.32170
C         -1.50620        0.63970       -0.45670
C          0.96710        0.60200        0.11950
C         -1.74625       -0.79346       -0.01395
C          2.19222        0.86417        0.61647
C          2.38754       -0.85169       -0.62787
H         -0.59420        1.31960        1.39460
H         -0.24330        2.34500        0.00390
H         -1.31421        0.64510       -1.53581
H          0.33739       -0.93848       -1.19458
H          2.49795        1.65420        1.28658
H         -2.64534        2.33256       -0.52120
H         -2.93525        1.41339        0.78813
H          2.76230       -1.70313       -1.17787
H         -1.17789       -2.60845       -0.44228
