#p m062X def2TZVP opt freq
 
6274 histidine
 
0 1
O         -0.61197       -1.39379        0.43129
O         -2.82373       -1.37235       -0.07162
N          1.51627        0.48655       -1.10244
N         -2.75043        1.36616       -0.21362
N          2.89406       -0.49180        0.33859
C         -0.35790        1.30040        0.32170
C         -1.50620        0.63970       -0.45670
C          0.96710        0.60200        0.11950
C         -1.74625       -0.79346       -0.01395
C          1.79970        0.00903        0.99802
C          2.69211       -0.18801       -0.92435
H         -0.59420        1.31960        1.39460
H         -0.24330        2.34500        0.00390
H         -1.31421        0.64510       -1.53581
H          1.14674        0.82487       -1.98156
H          1.69410       -0.09701        2.06772
H         -2.64534        2.33256       -0.52120
H         -2.93525        1.41339        0.78813
H          3.34968       -0.42340       -1.74903
H         -0.77231       -2.32260        0.70290
