#p m062X def2TZVP opt freq
 
6274 histidine
 
0 1
O         -2.07301       -0.88017        1.30170
O         -1.63366       -1.77666       -0.73511
N          1.90842        0.59877        1.07969
N         -2.75043        1.36616       -0.21362
N          2.71701       -0.54291       -0.64508
C         -0.35790        1.30040        0.32170
C         -1.50620        0.63970       -0.45670
C          0.96710        0.60200        0.11950
C         -1.74625       -0.79346       -0.01395
C          1.45348       -0.08958       -0.93016
C          2.96116       -0.11087        0.57223
H         -0.59420        1.31960        1.39460
H         -0.24330        2.34500        0.00390
H         -1.31421        0.64510       -1.53581
H          1.86088        1.02858        1.99449
H          0.98528       -0.29860       -1.88082
H         -2.64534        2.33256       -0.52120
H         -2.93525        1.41339        0.78813
H          3.86797       -0.27553        1.13656
H         -2.21353       -1.80929        1.58306
