#p m062X def2TZVP opt freq
 
5961 glutamine
 
0 1
O         -1.48639       -1.87556       -1.35927
O         -1.71119       -3.02085        0.58312
O          3.17309       -0.45555        0.60735
N         -2.08916       -0.60840        1.91681
N          2.84572        1.38852       -0.72721
C          0.13380       -0.23550        0.87580
C         -1.34240       -0.60860        0.65900
C          1.00320       -0.14580       -0.38390
C         -1.52784       -1.96184       -0.00328
C          2.44577        0.22436       -0.11276
H          0.19040        0.72360        1.40710
H          0.57830       -0.97640        1.55450
H         -1.80441        0.13693        0.00096
H          1.01661       -1.10879       -0.90683
H          0.58496        0.59919       -1.07098
H         -1.76590       -1.36343        2.51990
H         -3.07436       -0.79406        1.73198
H          2.22106        1.93384       -1.31263
H          3.79026        1.74142       -0.61443
H         -1.61328       -2.75024       -1.78493
