#p m062X def2TZVP opt freq
 
5961 glutamine
 
0 1
O         -2.02262        1.64541        0.26390
O         -2.69635        0.09621       -1.24646
O          3.01045       -0.06499        0.93949
N         -1.48140       -1.94169        0.07309
N          3.04247        0.92217       -1.13736
C          0.13380       -0.23550        0.87580
C         -1.34240       -0.60860        0.65900
C          1.00320       -0.14580       -0.38390
C         -2.08694        0.37769       -0.22256
C          2.44577        0.22436       -0.11276
H          0.19040        0.72360        1.40710
H          0.57830       -0.97640        1.55450
H         -1.85227       -0.62009        1.62966
H          1.01661       -1.10879       -0.90683
H          0.58496        0.59919       -1.07098
H         -1.11875       -1.94883       -0.87912
H         -2.46879       -2.18546        0.00318
H          2.54955        1.15286       -1.99415
H          4.00680        1.22991       -1.06820
H         -2.51021        2.27964       -0.30387
