#p m062X def2TZVP opt freq
 
5961 glutamine
 
0 1
O         -1.53858        1.62055       -0.17272
O         -3.07577        0.12164       -0.89757
O         -0.57706        0.82035       -1.91891
N         -1.48140       -1.94169        0.07309
N          1.45488        1.86496       -1.65658
C          0.13380       -0.23550        0.87580
C         -1.34240       -0.60860        0.65900
C          1.00320       -0.14580       -0.38390
C         -2.08694        0.37769       -0.22256
C          0.52950        0.88284       -1.38841
H          0.19040        0.72360        1.40710
H          0.57830       -0.97640        1.55450
H         -1.85227       -0.62009        1.62966
H          2.03217        0.12186       -0.11829
H          1.03255       -1.12074       -0.88454
H         -1.11875       -1.94883       -0.87912
H         -2.46879       -2.18546        0.00318
H          2.36481        1.88852       -1.20741
H          1.25297        2.60683       -2.31860
H         -2.02559        2.25754       -0.73788
