#p m062X def2TZVP opt freq
 
5961 glutamine
 
0 1
O         -2.83658       -2.23243       -0.25204
O         -0.62986       -2.74699       -0.27925
O          0.72623        0.76020       -2.59510
N         -2.08916       -0.60840        1.91681
N         -0.11389        1.95846       -0.82106
C          0.13380       -0.23550        0.87580
C         -1.34240       -0.60860        0.65900
C          1.00320       -0.14580       -0.38390
C         -1.52784       -1.96184       -0.00328
C          0.52950        0.88284       -1.38841
H          0.19040        0.72360        1.40710
H          0.57830       -0.97640        1.55450
H         -1.80441        0.13693        0.00096
H          2.03217        0.12186       -0.11829
H          1.03255       -1.12074       -0.88454
H         -1.76590       -1.36343        2.51990
H         -3.07436       -0.79406        1.73198
H         -0.25738        2.03657        0.18074
H         -0.47131        2.71564       -1.39406
H         -2.95426       -3.11029       -0.67376
