#p m062X def2TZVP opt freq
 
5961 glutamine
 
0 1
O         -3.41903       -1.08352        1.73670
O         -1.71523       -0.39433        3.06229
O          0.90389        2.05270       -1.35533
N         -2.00986        0.33173       -0.24101
N         -0.36166        0.38800       -2.31240
C          0.13380       -0.23550        0.87580
C         -1.34240       -0.60860        0.65900
C          1.00320       -0.14580       -0.38390
C         -2.13907       -0.67805        1.94925
C          0.52950        0.88284       -1.38841
H          0.19040        0.72360        1.40710
H          0.57830       -0.97640        1.55450
H         -1.39375       -1.60126        0.19610
H          2.03217        0.12186       -0.11829
H          1.03255       -1.12074       -0.88454
H         -2.08496        1.24827        0.19782
H         -2.96492        0.02121       -0.41624
H         -0.65830       -0.58272       -2.31241
H         -0.75336        0.98529       -3.03297
H         -3.93359       -1.12101        2.57107
