#p m062X def2TZVP opt freq
 
5961 glutamine
 
0 1
O         -1.58274        0.41481       -1.48441
O         -3.02278        1.08260        0.13282
O          0.72623        0.76020       -2.59510
N         -1.48140       -1.94169        0.07309
N         -0.11389        1.95846       -0.82106
C          0.13380       -0.23550        0.87580
C         -1.34240       -0.60860        0.65900
C          1.00320       -0.14580       -0.38390
C         -2.08694        0.37769       -0.22256
C          0.52950        0.88284       -1.38841
H          0.19040        0.72360        1.40710
H          0.57830       -0.97640        1.55450
H         -1.85227       -0.62009        1.62966
H          2.03217        0.12186       -0.11829
H          1.03255       -1.12074       -0.88454
H         -1.11875       -1.94883       -0.87912
H         -2.46879       -2.18546        0.00318
H         -0.25738        2.03657        0.18074
H         -0.47131        2.71564       -1.39406
H         -2.06116        1.05782       -2.05010
