#p m062X def2TZVP opt freq
 
5961 glutamine
 
0 1
O         -2.05217       -1.90087        2.53666
O         -2.80412        0.23383        2.42377
O          3.17309       -0.45555        0.60735
N         -2.00986        0.33173       -0.24101
N          2.84572        1.38852       -0.72721
C          0.13380       -0.23550        0.87580
C         -1.34240       -0.60860        0.65900
C          1.00320       -0.14580       -0.38390
C         -2.13907       -0.67805        1.94925
C          2.44577        0.22436       -0.11276
H          0.19040        0.72360        1.40710
H          0.57830       -0.97640        1.55450
H         -1.39375       -1.60126        0.19610
H          1.01661       -1.10879       -0.90683
H          0.58496        0.59919       -1.07098
H         -2.08496        1.24827        0.19782
H         -2.96492        0.02121       -0.41624
H          2.22106        1.93384       -1.31263
H          3.79026        1.74142       -0.61443
H         -2.57331       -1.94523        3.36660
