#p m062X def2TZVP opt freq
 
5961 glutamine
 
0 1
O         -2.20717        0.52850        2.57173
O         -2.65747       -1.68657        2.41094
O          3.27754        0.32338       -1.01175
N         -2.00986        0.33173       -0.24101
N          2.72950        0.41525        1.21985
C          0.13380       -0.23550        0.87580
C         -1.34240       -0.60860        0.65900
C          1.00320       -0.14580       -0.38390
C         -2.13907       -0.67805        1.94925
C          2.44577        0.22436       -0.11276
H          0.19040        0.72360        1.40710
H          0.57830       -0.97640        1.55450
H         -1.39375       -1.60126        0.19610
H          1.01661       -1.10879       -0.90683
H          0.58496        0.59919       -1.07098
H         -2.08496        1.24827        0.19782
H         -2.96492        0.02121       -0.41624
H          2.02309        0.32094        1.94260
H          3.66524        0.66144        1.52512
H         -2.71667        0.47946        3.40860
