#p m062X def2TZVP opt freq
 
5961 glutamine
 
0 1
O         -2.61773       -1.98674       -0.81532
O         -0.81006       -2.93942        0.16441
O         -0.07767        1.89678       -1.05212
N         -2.08916       -0.60840        1.91681
N          0.82509        0.56251       -2.69333
C          0.13380       -0.23550        0.87580
C         -1.34240       -0.60860        0.65900
C          1.00320       -0.14580       -0.38390
C         -1.52784       -1.96184       -0.00328
C          0.52950        0.88284       -1.38841
H          0.19040        0.72360        1.40710
H          0.57830       -0.97640        1.55450
H         -1.80441        0.13693        0.00096
H          2.03217        0.12186       -0.11829
H          1.03255       -1.12074       -0.88454
H         -1.76590       -1.36343        2.51990
H         -3.07436       -0.79406        1.73198
H          1.32330       -0.28589       -2.94291
H          0.55254        1.17333       -3.45623
H         -2.73922       -2.86424       -1.23672
