#p m062X def2TZVP opt freq
 
5961 glutamine
 
0 1
O         -2.65119       -0.22776       -1.30095
O         -2.17464        1.58264       -0.02405
O          2.86396        0.44607        1.02116
N         -1.48140       -1.94169        0.07309
N          3.22125        0.30525       -1.24629
C          0.13380       -0.23550        0.87580
C         -1.34240       -0.60860        0.65900
C          1.00320       -0.14580       -0.38390
C         -2.08694        0.37769       -0.22256
C          2.44577        0.22436       -0.11276
H          0.19040        0.72360        1.40710
H          0.57830       -0.97640        1.55450
H         -1.85227       -0.62009        1.62966
H          1.01661       -1.10879       -0.90683
H          0.58496        0.59919       -1.07098
H         -1.11875       -1.94883       -0.87912
H         -2.46879       -2.18546        0.00318
H          2.84741        0.12237       -2.17208
H          4.20399        0.55133       -1.19097
H         -3.12589        0.41276       -1.87256
