#p m062X def2TZVP opt freq
 
5961 glutamine
 
0 1
O         -2.76089        0.49813        2.22820
O         -2.21993       -1.65497        2.68280
O          3.30831       -0.62095        0.11373
N         -2.00986        0.33173       -0.24101
N          2.68371        1.57935       -0.12576
C          0.13380       -0.23550        0.87580
C         -1.34240       -0.60860        0.65900
C          1.00320       -0.14580       -0.38390
C         -2.13907       -0.67805        1.94925
C          2.44577        0.22436       -0.11276
H          0.19040        0.72360        1.40710
H          0.57830       -0.97640        1.55450
H         -1.39375       -1.60126        0.19610
H          1.01661       -1.10879       -0.90683
H          0.58496        0.59919       -1.07098
H         -2.08496        1.24827        0.19782
H         -2.96492        0.02121       -0.41624
H          1.94996        2.25603       -0.31014
H          3.61240        1.94879        0.04874
H         -3.26941        0.45271        3.06587
