#p m062X def2TZVP opt freq
 
5961 glutamine
 
0 1
O         -2.59087        1.41931        0.49087
O         -2.24703        0.26993       -1.43158
O          0.08651       -1.98673       -1.63193
N         -1.48140       -1.94169        0.07309
N          2.36120       -1.93106       -1.29799
C          0.13380       -0.23550        0.87580
C         -1.34240       -0.60860        0.65900
C          1.00320       -0.14580       -0.38390
C         -2.08694        0.37769       -0.22256
C          1.08373       -1.43633       -1.17104
H          0.19040        0.72360        1.40710
H          0.57830       -0.97640        1.55450
H         -1.85227       -0.62009        1.62966
H          0.60879        0.61638       -1.06545
H          2.02310        0.14925       -0.11047
H         -1.11875       -1.94883       -0.87912
H         -2.46879       -2.18546        0.00318
H          3.16684       -1.45785       -0.90140
H          2.54004       -2.79428       -1.80026
H         -3.07731        2.05162       -0.08002
