#p m062X def2TZVP opt freq
 
5962 lysine
 
0 1
O          0.90189       -0.70594        3.69255
O          1.29282       -2.04759        1.90840
N         -0.35168        1.05134        2.22691
N          3.74804        0.24749       -1.70967
C          1.16740        0.32920       -0.30510
C         -0.15550       -0.29580        0.15860
C          2.40660       -0.38260        0.24350
C         -0.36232       -0.30560        1.67853
C          3.68858        0.28558       -0.25322
C          0.69130       -1.10706        2.41461
H          1.20030        1.38180        0.00090
H          1.20160        0.31620       -1.40170
H         -0.22425       -1.32134       -0.22878
H         -0.98259        0.25387       -0.30925
H          2.38898       -1.43503       -0.06593
H          2.37792       -0.36736        1.34027
H         -1.33437       -0.75355        1.91594
H          4.56634       -0.22412        0.15885
H          3.72228        1.32906        0.07799
H          0.55210        1.48982        2.05491
H         -0.47446        1.01967        3.23809
H          3.74586       -0.72061       -2.02821
H          4.63098        0.64913       -2.02237
H          1.58306       -1.25161        4.14026
