#p m062X def2TZVP opt freq
 
5962 lysine
 
0 1
O         -3.43977       -0.78893       -0.92981
O         -3.02996       -0.34841        1.25515
N         -1.47059        1.79901        0.04249
N          2.46890       -1.93555       -1.65276
C          1.16740        0.32920       -0.30510
C         -0.15550       -0.29580        0.15860
C          2.40660       -0.38260        0.24350
C         -1.41486        0.39772       -0.37630
C          2.43971       -1.84580       -0.19766
C         -2.69669       -0.26911        0.07816
H          1.20030        1.38180        0.00090
H          1.20160        0.31620       -1.40170
H         -0.18141       -0.30997        1.25662
H         -0.17032       -1.34864       -0.15188
H          2.40643       -0.32189        1.33894
H          3.30784        0.13457       -0.10901
H         -1.41023        0.37723       -1.47241
H          1.55901       -2.37619        0.18063
H          3.32802       -2.34166        0.20820
H         -1.51064        1.85774        1.05916
H         -2.32175        2.23464       -0.31009
H          1.63208       -1.50176       -2.04038
H          2.43801       -2.91537       -1.93150
H         -4.25656       -1.21936       -0.59847
