#p m062X def2TZVP opt freq
 
5962 lysine
 
0 1
O          0.79411       -2.39600        2.00664
O          1.40260       -0.63194        3.29267
N         -0.35168        1.05134        2.22691
N          3.73394        1.67779        0.17796
C          1.16740        0.32920       -0.30510
C         -0.15550       -0.29580        0.15860
C          2.40660       -0.38260        0.24350
C         -0.36232       -0.30560        1.67853
C          3.68858        0.28558       -0.25322
C          0.69130       -1.10706        2.41461
H          1.20030        1.38180        0.00090
H          1.20160        0.31620       -1.40170
H         -0.22425       -1.32134       -0.22878
H         -0.98259        0.25387       -0.30925
H          2.38898       -1.43503       -0.06593
H          2.37792       -0.36736        1.34027
H         -1.33437       -0.75355        1.91594
H          3.73958        0.24292       -1.34668
H          4.56471       -0.23918        0.14265
H          0.55210        1.48982        2.05491
H         -0.47446        1.01967        3.23809
H          2.93759        2.18301       -0.20838
H          4.56732        2.12285       -0.20425
H          1.49056       -2.88138        2.49814
