#p m062X def2TZVP opt freq
 
5962 lysine
 
0 1
O         -1.43790        1.40608        2.99309
O          0.63166        1.83710        2.17626
N         -1.64291       -0.91601        2.03852
N          3.62537       -2.50813        0.33314
C          1.16740        0.32920       -0.30510
C         -0.15550       -0.29580        0.15860
C          2.40660       -0.38260        0.24350
C         -0.36232       -0.30560        1.67853
C          2.43971       -1.84580       -0.19766
C         -0.32528        1.07952        2.29038
H          1.20030        1.38180        0.00090
H          1.20160        0.31620       -1.40170
H         -0.22425       -1.32134       -0.22878
H         -0.98259        0.25387       -0.30925
H          2.40643       -0.32189        1.33894
H          3.30784        0.13457       -0.10901
H          0.43211       -0.89155        2.15542
H          2.44624       -1.91238       -1.29109
H          1.54743       -2.36844        0.16339
H         -2.41044       -0.37697        1.63975
H         -1.76596       -0.89722        3.04999
H          4.46308       -2.04701       -0.01943
H          3.66005       -3.46644       -0.01202
H         -1.37539        2.30474        3.38129
