#p m062X def2TZVP opt freq
 
5962 lysine
 
0 1
O         -3.22987        0.26288        1.20558
O         -3.21904       -1.19894       -0.52619
N         -1.47059        1.79901        0.04249
N          2.43974        1.02317        2.25199
C          1.16740        0.32920       -0.30510
C         -0.15550       -0.29580        0.15860
C          2.40660       -0.38260        0.24350
C         -1.41486        0.39772       -0.37630
C          2.42501       -0.35355        1.77173
C         -2.69669       -0.26911        0.07816
H          1.20030        1.38180        0.00090
H          1.20160        0.31620       -1.40170
H         -0.18141       -0.30997        1.25662
H         -0.17032       -1.34864       -0.15188
H          3.30893        0.10104       -0.15092
H          2.41504       -1.42106       -0.11074
H         -1.41023        0.37723       -1.47241
H          3.30836       -0.87910        2.15061
H          1.53899       -0.86042        2.16889
H         -1.51064        1.85774        1.05916
H         -2.32175        2.23464       -0.31009
H          3.27545        1.49673        1.91135
H          2.50461        1.02550        3.26908
H         -4.06192       -0.18721        1.46503
