#p m062X def2TZVP opt freq
 
5962 lysine
 
0 1
O         -3.76630        0.56239        0.13200
O         -2.76938       -1.46017        0.35881
N         -1.47059        1.79901        0.04249
N          3.73394        1.67779        0.17796
C          1.16740        0.32920       -0.30510
C         -0.15550       -0.29580        0.15860
C          2.40660       -0.38260        0.24350
C         -1.41486        0.39772       -0.37630
C          3.68858        0.28558       -0.25322
C         -2.69669       -0.26911        0.07816
H          1.20030        1.38180        0.00090
H          1.20160        0.31620       -1.40170
H         -0.18141       -0.30997        1.25662
H         -0.17032       -1.34864       -0.15188
H          2.38898       -1.43503       -0.06593
H          2.37792       -0.36736        1.34027
H         -1.41023        0.37723       -1.47241
H          3.73958        0.24292       -1.34668
H          4.56471       -0.23918        0.14265
H         -1.51064        1.85774        1.05916
H         -2.32175        2.23464       -0.31009
H          2.93759        2.18301       -0.20838
H          4.56732        2.12285       -0.20425
H         -4.57902        0.09556        0.42138
