#p m062X def2TZVP opt freq
 
5962 lysine
 
0 1
O          0.90189       -0.70594        3.69255
O          1.29282       -2.04759        1.90840
N         -0.35168        1.05134        2.22691
N          2.46890       -1.93555       -1.65276
C          1.16740        0.32920       -0.30510
C         -0.15550       -0.29580        0.15860
C          2.40660       -0.38260        0.24350
C         -0.36232       -0.30560        1.67853
C          2.43971       -1.84580       -0.19766
C          0.69130       -1.10706        2.41461
H          1.20030        1.38180        0.00090
H          1.20160        0.31620       -1.40170
H         -0.22425       -1.32134       -0.22878
H         -0.98259        0.25387       -0.30925
H          2.40643       -0.32189        1.33894
H          3.30784        0.13457       -0.10901
H         -1.33437       -0.75355        1.91594
H          1.55901       -2.37619        0.18063
H          3.32802       -2.34166        0.20820
H          0.55210        1.48982        2.05491
H         -0.47446        1.01967        3.23809
H          1.63208       -1.50176       -2.04038
H          2.43801       -2.91537       -1.93150
H          1.58306       -1.25161        4.14026
