#p m062X def2TZVP opt freq
 
6287 valine
 
0 1
O         -1.71776        1.97716       -1.17257
O          0.31008        2.73370       -0.50609
N         -0.23681       -0.19396       -2.09876
C          1.38040        0.01300       -0.23070
C         -0.04640        0.32430       -0.74450
C          1.73180       -1.47740       -0.16260
C          1.65180        0.68380        1.12000
C         -0.42461        1.79732       -0.78724
H          2.08430        0.45710       -0.94950
H         -0.77344       -0.18529       -0.09930
H          1.55670       -1.95850       -1.13040
H          1.12880       -1.99480        0.59050
H          2.78660       -1.61680        0.09670
H          0.98860        0.29700        1.90070
H          2.68240        0.49310        1.44030
H          1.52870        1.77010        1.07170
H         -1.21709       -0.10812       -2.36539
H         -0.02530       -1.19101       -2.11735
H         -1.96343        2.92667       -1.19301
