#p m062X def2TZVP opt freq
 
6106 leucine
 
0 1
O          1.64980       -1.06926        1.29438
O          1.05859       -1.25389       -0.88695
N          1.74566        1.72870       -0.01260
C         -1.80210        0.19050       -0.40870
C         -0.56430        1.07930       -0.64940
C          0.62490        0.84080        0.29480
C         -1.47538       -1.30026       -0.50252
C         -2.89545        0.54410       -1.42133
C          1.12095       -0.58729        0.13788
H         -2.17652        0.40654        0.59969
H         -0.24450        0.95730       -1.69370
H         -0.87980        2.12730       -0.55310
H          0.33407        1.01591        1.33527
H         -1.19299       -1.60295       -1.51559
H         -0.65475       -1.56031        0.17411
H         -2.34705       -1.89794       -0.21403
H         -3.00981        1.62378       -1.55356
H         -2.79757        0.03636       -2.38120
H         -3.85601        0.19185       -1.02208
H          1.44703        2.69796        0.09283
H          2.00710        1.62663       -0.99321
H          1.96484       -1.99289        1.19450
