#p m062X def2TZVP opt freq
 
6106 leucine
 
0 1
O          0.48381       -1.44017        0.98411
O          1.98023       -0.95975       -0.65043
N          1.74566        1.72870       -0.01260
C         -1.80210        0.19050       -0.40870
C         -0.56430        1.07930       -0.64940
C          0.62490        0.84080        0.29480
C         -2.41776        0.41182        0.97329
C         -1.41841       -1.28317       -0.57294
C          1.12095       -0.58729        0.13788
H         -2.54830        0.44455       -1.17182
H         -0.24450        0.95730       -1.69370
H         -0.87980        2.12730       -0.55310
H          0.33407        1.01591        1.33527
H         -1.75956        0.07908        1.78184
H         -2.64547        1.47117        1.13078
H         -3.35538       -0.14751        1.06423
H         -0.77813       -1.45425       -1.44302
H         -0.99713       -1.73853        0.32366
H         -2.33648       -1.85463       -0.76462
H          1.44703        2.69796        0.09283
H          2.00710        1.62663       -0.99321
H          0.80009       -2.36278        0.87883
