#p m062X def2TZVP opt freq
 
6140 phenylalanine
 
0 1
O         -2.23964        2.28980       -2.01087
O         -0.30431        1.13593       -2.27326
N         -1.76008       -0.70902       -0.56340
C         -0.60900        0.98120        0.79050
C         -1.66520        0.72410       -0.29570
C          0.75930        0.46120        0.41410
C          0.92372       -0.89016        0.15859
C          1.82152        1.34618        0.33165
C         -1.30373        1.38911       -1.61274
C          2.18633       -1.37024       -0.18906
C          3.08413        0.86597       -0.01618
C          3.26653       -0.49217       -0.27644
H         -0.91800        0.53780        1.74710
H         -0.51610        2.05890        0.98590
H         -2.65919        1.06870        0.01201
H          0.08988       -1.58289        0.22630
H          1.68889        2.40583        0.52988
H         -2.04728       -1.19643        0.28482
H         -0.83913       -1.07945       -0.79750
H          2.32851       -2.42784       -0.39137
H          3.92529        1.54970       -0.08491
H          4.24965       -0.86601       -0.54729
H         -2.00560        2.70556       -2.86783
