#p m062X def2TZVP opt freq
 
6140 phenylalanine
 
0 1
O         -3.49820        0.68018        1.24098
O         -3.67473        2.07926       -0.53586
N         -1.28878        1.41790       -1.52511
C         -0.60900        0.98120        0.79050
C         -1.66520        0.72410       -0.29570
C          0.75930        0.46120        0.41410
C          1.10818       -0.83552        0.75364
C          1.63702        1.29132       -0.26324
C         -3.03276        1.25345        0.10063
C          2.37078       -1.31572        0.40614
C          2.89962        0.81092       -0.61084
C          3.26650       -0.49250       -0.27610
H         -0.91800        0.53780        1.74710
H         -0.51610        2.05890        0.98590
H         -1.75523       -0.34221       -0.53303
H          0.41926       -1.48404        1.28710
H          1.35954        2.30684       -0.53060
H         -0.39339        1.06137       -1.85780
H         -1.13834        2.40797       -1.33202
H          2.65666       -2.33054        0.66710
H          3.59704        1.45164       -1.14270
H          4.24960       -0.86650       -0.54680
H         -4.38666        1.01759        1.48346
