#p m062X def2TZVP opt freq
 
6322 arginine
 
0 1
O         -0.39955        1.68439       -4.33043
O         -2.16244        0.58290       -3.42130
N         -1.05055        2.83332       -1.55050
N          1.85621        1.39565        1.75985
N          3.09160       -0.56164        1.63811
N          3.33018        0.69697        3.52324
C         -0.76980        0.49290       -0.86970
C         -0.17130        0.87480        0.49210
C         -0.47944        1.54863       -1.94715
C          1.34470        1.03260        0.43730
C         -1.11575        1.20192       -3.28068
C          2.70819        0.58087        2.30003
H         -1.85465        0.36361       -0.77685
H         -0.36184       -0.47505       -1.18776
H         -0.59460        1.82110        0.84740
H         -0.41860        0.10880        1.23690
H          0.59983        1.66193       -2.09524
H          1.79439        0.09190        0.09690
H          1.58308        1.81640       -0.29186
H         -0.77576        3.55259       -2.21869
H         -0.66095        3.11834       -0.65267
H         -0.81964        1.46709       -5.18977
H          2.71797       -0.78666        0.72247
H          3.75620       -1.21169        2.04319
H          3.98420       -0.00812        3.84580
H          3.16412        1.48225        4.14251
