#p m062X def2TZVP opt freq
 
6322 arginine
 
0 1
O         -2.38932       -1.29019       -2.55575
O         -3.69635        0.54929       -2.79154
N         -2.64995       -0.71204        0.14667
N          1.70236        2.08283       -0.51753
N          2.12668        4.33184       -0.88343
N          1.59254        3.71237        1.24394
C         -0.76980        0.49290       -0.86970
C         -0.17130        0.87480        0.49210
C         -2.29663        0.33541       -0.80828
C          1.34470        1.03260        0.43730
C         -2.88600       -0.09554       -2.13881
C          1.79362        3.28934       -0.05112
H         -0.32590       -0.44586       -1.22172
H         -0.51159        1.26182       -1.60903
H         -0.59460        1.82110        0.84740
H         -0.41860        0.10880        1.23690
H         -2.76958        1.27596       -0.50617
H          1.71920        1.28008        1.43806
H          1.77971        0.07387        0.12998
H         -3.66280       -0.74949        0.25661
H         -2.27470       -0.47834        1.06521
H         -2.76496       -1.55997       -3.42078
H          2.30598        4.17772       -1.86969
H          2.20345        5.28235       -0.53846
H          1.69275        4.68985        1.49577
H          1.33740        3.07349        1.98858
