#p m062X def2TZVP opt freq
 
6322 arginine
 
0 1
O          1.72515        0.14886       -2.38689
O          2.06816       -1.58211       -0.96082
N         -0.51699       -1.91196       -0.45424
N          1.70236        2.08283       -0.51753
N          3.53066        3.26555       -1.31157
N          3.35574        3.02532        0.94817
C         -0.76980        0.49290       -0.86970
C         -0.17130        0.87480        0.49210
C         -0.21110       -0.83782       -1.39583
C          1.34470        1.03260        0.43730
C          1.30058       -0.81630       -1.52904
C          2.79069        2.74523       -0.27610
H         -0.56446        1.28299       -1.60171
H         -1.86124        0.42057       -0.77995
H         -0.59460        1.82110        0.84740
H         -0.41860        0.10880        1.23690
H         -0.64343       -1.07827       -2.37300
H          1.71920        1.28008        1.43806
H          1.77971        0.07387        0.12998
H         -0.23023       -2.80710       -0.84902
H         -1.52572       -1.97259       -0.32033
H          2.70180        0.15252       -2.47804
H          3.24143        3.14170       -2.27575
H          4.38456        3.78627       -1.14408
H          4.21724        3.55642        1.01674
H          2.93867        2.71841        1.81972
