#p m062X def2TZVP opt freq
 
6322 arginine
 
0 1
O         -0.04962       -3.17956       -0.95426
O         -1.20412       -1.92730        0.54458
N         -0.81215       -1.15207       -2.68963
N          1.85621        1.39565        1.75985
N          3.40179        0.72951        3.35341
N          4.11086        0.79550        1.18832
C         -0.76980        0.49290       -0.86970
C         -0.17130        0.87480        0.49210
C         -0.21110       -0.83782       -1.39583
C          1.34470        1.03260        0.43730
C         -0.54597       -2.00447       -0.48469
C          3.05645        0.99993        2.05030
H         -0.56446        1.28299       -1.60171
H         -1.86124        0.42057       -0.77995
H         -0.59460        1.82110        0.84740
H         -0.41860        0.10880        1.23690
H          0.87726       -0.78281       -1.50549
H          1.79439        0.09190        0.09690
H          1.58308        1.81640       -0.29186
H         -0.37119       -1.98402       -3.08048
H         -0.62275       -0.39667       -3.34738
H         -0.27711       -3.93236       -0.36798
H          2.72962        0.83392        4.10567
H          4.33485        0.41928        3.60147
H          5.01278        0.48250        1.53111
H          4.02980        0.94521        0.18894
