#p m062X def2TZVP opt freq
 
6322 arginine
 
0 1
O         -1.80211       -1.68598        0.36399
O         -3.79156       -0.69408        0.81763
N         -2.90908        1.59251       -0.38572
N          1.96196       -0.22596        0.01585
N          3.83985       -1.53599        0.37553
N          2.79393       -0.69839        2.21923
C         -0.76980        0.49290       -0.86970
C         -0.17130        0.87480        0.49210
C         -2.29663        0.33541       -0.80828
C          1.34470        1.03260        0.43730
C         -2.72880       -0.70349        0.21020
C          2.79647       -0.77290        0.84408
H         -0.32590       -0.44586       -1.22172
H         -0.51159        1.26182       -1.60903
H         -0.59460        1.82110        0.84740
H         -0.41860        0.10880        1.23690
H         -2.69463        0.04949       -1.78778
H          1.59965        1.83815       -0.26207
H          1.69782        1.31438        1.43668
H         -3.92427        1.51471       -0.43751
H         -2.64931        2.33468       -1.03444
H         -2.08986       -2.36068        1.01526
H          3.97493       -1.68426       -0.61865
H          4.50306       -1.97239        1.00645
H          3.50278       -1.17146        2.76939
H          2.09439       -0.17307        2.73151
