#p m062X def2TZVP opt freq
 
6322 arginine
 
0 1
O         -1.99409        2.15440       -3.69177
O         -0.89906        0.18042       -3.91950
N         -1.05055        2.83332       -1.55050
N          1.85621        1.39565        1.75985
N          0.49583       -0.22491        2.70598
N          1.06524        1.54593        4.02305
C         -0.76980        0.49290       -0.86970
C         -0.17130        0.87480        0.49210
C         -0.47944        1.54863       -1.94715
C          1.34470        1.03260        0.43730
C         -1.11575        1.20192       -3.28068
C          1.19003        0.95941        2.78329
H         -1.85465        0.36361       -0.77685
H         -0.36184       -0.47505       -1.18776
H         -0.59460        1.82110        0.84740
H         -0.41860        0.10880        1.23690
H          0.59983        1.66193       -2.09524
H          1.79439        0.09190        0.09690
H          1.58308        1.81640       -0.29186
H         -0.77576        3.55259       -2.21869
H         -0.66095        3.11834       -0.65267
H         -2.41071        1.92151       -4.54871
H          0.49176       -0.77477        1.85377
H         -0.03139       -0.58321        3.49466
H          0.51311        1.11020        4.75396
H          1.51563        2.42429        4.25406
