#p m062X def2TZVP opt freq
 
6322 arginine
 
0 1
O          1.72515        0.14886       -2.38689
O          2.06816       -1.58211       -0.96082
N         -0.51699       -1.91196       -0.45424
N          1.70236        2.08283       -0.51753
N          3.39296        3.59066       -1.00775
N          4.02010        1.45184       -0.53136
C         -0.76980        0.49290       -0.86970
C         -0.17130        0.87480        0.49210
C         -0.21110       -0.83782       -1.39583
C          1.34470        1.03260        0.43730
C          1.30058       -0.81630       -1.52904
C          2.96665        2.32813       -0.66896
H         -0.56446        1.28299       -1.60171
H         -1.86124        0.42057       -0.77995
H         -0.59460        1.82110        0.84740
H         -0.41860        0.10880        1.23690
H         -0.64343       -1.07827       -2.37300
H          1.71920        1.28008        1.43806
H          1.77971        0.07387        0.12998
H         -0.23023       -2.80710       -0.84902
H         -1.52572       -1.97259       -0.32033
H          2.70180        0.15252       -2.47804
H          2.73175        4.34741       -1.14465
H          4.37686        3.80304       -1.13109
H          4.97642        1.75779       -0.67561
H          3.88547        0.47861       -0.28150
