#p m062X def2TZVP opt freq
 
6322 arginine
 
0 1
O         -4.08034       -0.83929        0.26094
O         -1.97133       -1.34054        0.93058
N         -2.90908        1.59251       -0.38572
N          1.70236        2.08283       -0.51753
N          2.12668        4.33184       -0.88343
N          1.59254        3.71237        1.24394
C         -0.76980        0.49290       -0.86970
C         -0.17130        0.87480        0.49210
C         -2.29663        0.33541       -0.80828
C          1.34470        1.03260        0.43730
C         -2.72880       -0.70349        0.21020
C          1.79362        3.28934       -0.05112
H         -0.32590       -0.44586       -1.22172
H         -0.51159        1.26182       -1.60903
H         -0.59460        1.82110        0.84740
H         -0.41860        0.10880        1.23690
H         -2.69463        0.04949       -1.78778
H          1.71920        1.28008        1.43806
H          1.77971        0.07387        0.12998
H         -3.92427        1.51471       -0.43751
H         -2.64931        2.33468       -1.03444
H         -4.35579       -1.50403        0.92760
H          2.30598        4.17772       -1.86969
H          2.20345        5.28235       -0.53846
H          1.69275        4.68985        1.49577
H          1.33740        3.07349        1.98858
