#p m062X def2TZVP opt freq
 
6322 arginine
 
0 1
O          0.40752       -2.20357        0.46343
O         -1.53879       -2.71351       -0.58511
N         -0.81215       -1.15207       -2.68963
N          1.85621        1.39565        1.75985
N          2.15848        3.57201        1.02222
N          1.81727        3.27454        3.25602
C         -0.76980        0.49290       -0.86970
C         -0.17130        0.87480        0.49210
C         -0.21110       -0.83782       -1.39583
C          1.34470        1.03260        0.43730
C         -0.54597       -2.00447       -0.48469
C          1.93408        2.66194        2.02816
H         -0.56446        1.28299       -1.60171
H         -1.86124        0.42057       -0.77995
H         -0.59460        1.82110        0.84740
H         -0.41860        0.10880        1.23690
H          0.87726       -0.78281       -1.50549
H          1.79439        0.09190        0.09690
H          1.58308        1.81640       -0.29186
H         -0.37119       -1.98402       -3.08048
H         -0.62275       -0.39667       -3.34738
H          0.19237       -2.96476        1.04350
H          2.26663        3.27217        0.05941
H          2.22293        4.56627        1.21105
H          1.89673        4.28168        3.34707
H          1.64718        2.75170        4.10775
