#p m062X def2TZVP opt freq
 
6322 arginine
 
0 1
O         -0.85612        2.13879       -4.23071
O         -1.80586        0.21393       -3.49552
N         -1.05055        2.83332       -1.55050
N          1.96196       -0.22596        0.01585
N          2.86560       -2.26685        0.64049
N          2.11568       -0.91196        2.31281
C         -0.76980        0.49290       -0.86970
C         -0.17130        0.87480        0.49210
C         -0.47944        1.54863       -1.94715
C          1.34470        1.03260        0.43730
C         -1.11575        1.20192       -3.28068
C          2.28284       -1.06163        0.95404
H         -1.85465        0.36361       -0.77685
H         -0.36184       -0.47505       -1.18776
H         -0.59460        1.82110        0.84740
H         -0.41860        0.10880        1.23690
H          0.59983        1.66193       -2.09524
H          1.59965        1.83815       -0.26207
H          1.69782        1.31438        1.43668
H         -0.77576        3.55259       -2.21869
H         -0.66095        3.11834       -0.65267
H         -1.27772        1.91618       -5.08795
H          3.05359       -2.52269       -0.32275
H          3.12376       -2.93416        1.35911
H          2.40656       -1.63851        2.95814
H          1.70268       -0.07995        2.71893
