#p m062X def2TZVP opt freq
 
6322 arginine
 
0 1
O          0.40196       -2.97766       -0.52977
O         -1.55552       -2.09413        0.20182
N         -0.81215       -1.15207       -2.68963
N          1.70236        2.08283       -0.51753
N          3.38483        3.29883       -1.54836
N          4.02753        1.71925       -0.03620
C         -0.76980        0.49290       -0.86970
C         -0.17130        0.87480        0.49210
C         -0.21110       -0.83782       -1.39583
C          1.34470        1.03260        0.43730
C         -0.54597       -2.00447       -0.48469
C          2.96665        2.32813       -0.66896
H         -0.56446        1.28299       -1.60171
H         -1.86124        0.42057       -0.77995
H         -0.59460        1.82110        0.84740
H         -0.41860        0.10880        1.23690
H          0.87726       -0.78281       -1.50549
H          1.71920        1.28008        1.43806
H          1.77971        0.07387        0.12998
H         -0.37119       -1.98402       -3.08048
H         -0.62275       -0.39667       -3.34738
H          0.17659       -3.73422        0.05246
H          2.71755        3.83655       -2.09077
H          4.36861        3.50578       -1.68150
H          4.98305        1.99525       -0.23556
H          3.89912        0.98162        0.64728
