#p m062X def2TZVP opt freq
 
6322 arginine
 
0 1
O         -0.85612        2.13879       -4.23071
O         -1.80586        0.21393       -3.49552
N         -1.05055        2.83332       -1.55050
N          1.85621        1.39565        1.75985
N          1.52647       -0.78843        2.46205
N          1.46853        0.83303        4.06277
C         -0.76980        0.49290       -0.86970
C         -0.17130        0.87480        0.49210
C         -0.47944        1.54863       -1.94715
C          1.34470        1.03260        0.43730
C         -1.11575        1.20192       -3.28068
C          1.63060        0.55747        2.72322
H         -1.85465        0.36361       -0.77685
H         -0.36184       -0.47505       -1.18776
H         -0.59460        1.82110        0.84740
H         -0.41860        0.10880        1.23690
H          0.59983        1.66193       -2.09524
H          1.79439        0.09190        0.09690
H          1.58308        1.81640       -0.29186
H         -0.77576        3.55259       -2.21869
H         -0.66095        3.11834       -0.65267
H         -1.27772        1.91618       -5.08795
H          1.62318       -1.14772        1.51856
H          1.35015       -1.46010        3.20105
H          1.29468        0.09048        4.73160
H          1.51775        1.77622        4.43114
