#p m062X def2TZVP opt freq
 
6322 arginine
 
0 1
O         -4.08034       -0.83929        0.26094
O         -1.97133       -1.34054        0.93058
N         -2.90908        1.59251       -0.38572
N          1.96196       -0.22596        0.01585
N          3.54524        0.01568        1.69121
N          4.15224       -1.20018       -0.13854
C         -0.76980        0.49290       -0.86970
C         -0.17130        0.87480        0.49210
C         -2.29663        0.33541       -0.80828
C          1.34470        1.03260        0.43730
C         -2.72880       -0.70349        0.21020
C          3.15245       -0.47209        0.46717
H         -0.32590       -0.44586       -1.22172
H         -0.51159        1.26182       -1.60903
H         -0.59460        1.82110        0.84740
H         -0.41860        0.10880        1.23690
H         -2.69463        0.04949       -1.78778
H          1.59965        1.83815       -0.26207
H          1.69782        1.31438        1.43668
H         -3.92427        1.51471       -0.43751
H         -2.64931        2.33468       -1.03444
H         -4.35579       -1.50403        0.92760
H          2.91624        0.57279        2.25920
H          4.47164       -0.16525        2.06190
H          5.05198       -1.32781        0.31214
H          4.03132       -1.63464       -1.04649
