#p m062X def2TZVP opt freq
 
6322 arginine
 
0 1
O         -1.88710       -2.17547       -0.34391
O          0.27550       -2.70908        0.08736
N         -0.81215       -1.15207       -2.68963
N          1.85621        1.39565        1.75985
N          3.69669        1.90747        3.07237
N          4.08948        1.44091        0.87628
C         -0.76980        0.49290       -0.86970
C         -0.17130        0.87480        0.49210
C         -0.21110       -0.83782       -1.39583
C          1.34470        1.03260        0.43730
C         -0.54597       -2.00447       -0.48469
C          3.13777        1.56382        1.86406
H         -0.56446        1.28299       -1.60171
H         -1.86124        0.42057       -0.77995
H         -0.59460        1.82110        0.84740
H         -0.41860        0.10880        1.23690
H          0.87726       -0.78281       -1.50549
H          1.79439        0.09190        0.09690
H          1.58308        1.81640       -0.29186
H         -0.37119       -1.98402       -3.08048
H         -0.62275       -0.39667       -3.34738
H         -2.09908       -2.92378        0.25381
H          3.12155        2.03501        3.89794
H          4.69633        2.04381        3.17482
H          5.07179        1.59774        1.07481
H          3.85127        1.18991       -0.07661
